# This problem is an example from 
# Linear Optimization course WS-2020/2021 week-5.
#

param n := 3;
param m := 4;

param	C :=
		1	18
		2	20
		3	25;
param	A:	1	2	3	:=
		1	4	5	8	
		2	1	1	1	
		3	1	2	2
		4	3	2	1	;
param	B :=
		1	900
		2	220
		3	280
		4	675;		